NAME: instance_1646
TYPE: TSP
DIMENSION: 20
EDGE_WEIGHT_TYPE: EUC_2D
NODE_COORD_SECTION
0 20.85 27.49
1 0.59 28.42
2 54.00 34.27
3 12.04 90.83
4 46.19 36.80
5 59.94 23.70
6 63.41 28.17
7 49.45 41.82
8 78.65 63.61
9 84.67 31.48
10 72.92 28.42
11 86.41 87.99
12 65.69 35.64
13 83.62 2.07
14 88.27 35.36
15 71.86 5.85
16 25.20 77.46
17 48.13 96.41
18 35.72 89.21
19 12.33 97.03
EOF
